p cnf 10 40
v 19 37 11 34 4 37 32 4 20 38
-4 7 9 0
-4 -1 -2 0
-1 6 9 0
6 4 3 0
2 -1 -9 0
-7 -10 -9 0
6 -3 5 0
-5 10 7 0
9 1 -7 0
-1 6 3 0
-2 -1 5 0
7 9 4 0
10 -7 4 0
5 7 -4 0
3 -1 9 0
5 9 -4 0
-1 5 2 0
5 6 8 0
2 -8 -6 0
9 -5 -6 0
8 2 -1 0
7 1 -9 0
4 -8 6 0
7 9 -6 0
-10 2 -5 0
-8 6 -7 0
-4 10 5 0
-6 8 -10 0
-6 -3 -5 0
-9 -6 -5 0
-9 7 -1 0
-3 -9 -10 0
-5 10 4 0
8 -5 -1 0
7 8 -4 0
-6 -2 -1 0
8 -1 6 0
-4 1 -5 0
2 -5 -6 0
-6 10 2 0

